c description: Perfect Matching Principle on 
c generator: CNFgen (0.9.0)
c copyright: (C) 2012-2020 Massimo Lauria <massimo.lauria@uniroma1.it>
c url: https://massimolauria.net/cnfgen
c
p cnf 120 967
-1 -2 0
-1 -3 0
-1 -4 0
-1 -5 0
-2 -3 0
-2 -4 0
-2 -5 0
-3 -4 0
-3 -5 0
-4 -5 0
1 2 3 4 5 0
-6 -7 0
-6 -8 0
-6 -9 0
-6 -10 0
-6 -11 0
-7 -8 0
-7 -9 0
-7 -10 0
-7 -11 0
-8 -9 0
-8 -10 0
-8 -11 0
-9 -10 0
-9 -11 0
-10 -11 0
6 7 8 9 10 11 0
-1 -12 0
-1 -13 0
-1 -14 0
-1 -15 0
-1 -16 0
-1 -17 0
-1 -18 0
-1 -19 0
-12 -13 0
-12 -14 0
-12 -15 0
-12 -16 0
-12 -17 0
-12 -18 0
-12 -19 0
-13 -14 0
-13 -15 0
-13 -16 0
-13 -17 0
-13 -18 0
-13 -19 0
-14 -15 0
-14 -16 0
-14 -17 0
-14 -18 0
-14 -19 0
-15 -16 0
-15 -17 0
-15 -18 0
-15 -19 0
-16 -17 0
-16 -18 0
-16 -19 0
-17 -18 0
-17 -19 0
-18 -19 0
1 12 13 14 15 16 17 18 19 0
-20 -21 0
-20 -22 0
-20 -23 0
-20 -24 0
-20 -25 0
-20 -26 0
-20 -27 0
-21 -22 0
-21 -23 0
-21 -24 0
-21 -25 0
-21 -26 0
-21 -27 0
-22 -23 0
-22 -24 0
-22 -25 0
-22 -26 0
-22 -27 0
-23 -24 0
-23 -25 0
-23 -26 0
-23 -27 0
-24 -25 0
-24 -26 0
-24 -27 0
-25 -26 0
-25 -27 0
-26 -27 0
20 21 22 23 24 25 26 27 0
-2 -28 0
-2 -29 0
-2 -30 0
-2 -31 0
-2 -32 0
-2 -33 0
-28 -29 0
-28 -30 0
-28 -31 0
-28 -32 0
-28 -33 0
-29 -30 0
-29 -31 0
-29 -32 0
-29 -33 0
-30 -31 0
-30 -32 0
-30 -33 0
-31 -32 0
-31 -33 0
-32 -33 0
2 28 29 30 31 32 33 0
-28 -34 0
-28 -35 0
-28 -36 0
-28 -37 0
-28 -38 0
-34 -35 0
-34 -36 0
-34 -37 0
-34 -38 0
-35 -36 0
-35 -37 0
-35 -38 0
-36 -37 0
-36 -38 0
-37 -38 0
28 34 35 36 37 38 0
-20 -29 0
-20 -34 0
-20 -39 0
-20 -40 0
-20 -41 0
-20 -42 0
-20 -43 0
-20 -44 0
-29 -34 0
-29 -39 0
-29 -40 0
-29 -41 0
-29 -42 0
-29 -43 0
-29 -44 0
-34 -39 0
-34 -40 0
-34 -41 0
-34 -42 0
-34 -43 0
-34 -44 0
-39 -40 0
-39 -41 0
-39 -42 0
-39 -43 0
-39 -44 0
-40 -41 0
-40 -42 0
-40 -43 0
-40 -44 0
-41 -42 0
-41 -43 0
-41 -44 0
-42 -43 0
-42 -44 0
-43 -44 0
20 29 34 39 40 41 42 43 44 0
-6 -12 0
-6 -30 0
-6 -45 0
-6 -46 0
-6 -47 0
-6 -48 0
-6 -49 0
-6 -50 0
-6 -51 0
-6 -52 0
-6 -53 0
-6 -54 0
-6 -55 0
-12 -30 0
-12 -45 0
-12 -46 0
-12 -47 0
-12 -48 0
-12 -49 0
-12 -50 0
-12 -51 0
-12 -52 0
-12 -53 0
-12 -54 0
-12 -55 0
-30 -45 0
-30 -46 0
-30 -47 0
-30 -48 0
-30 -49 0
-30 -50 0
-30 -51 0
-30 -52 0
-30 -53 0
-30 -54 0
-30 -55 0
-45 -46 0
-45 -47 0
-45 -48 0
-45 -49 0
-45 -50 0
-45 -51 0
-45 -52 0
-45 -53 0
-45 -54 0
-45 -55 0
-46 -47 0
-46 -48 0
-46 -49 0
-46 -50 0
-46 -51 0
-46 -52 0
-46 -53 0
-46 -54 0
-46 -55 0
-47 -48 0
-47 -49 0
-47 -50 0
-47 -51 0
-47 -52 0
-47 -53 0
-47 -54 0
-47 -55 0
-48 -49 0
-48 -50 0
-48 -51 0
-48 -52 0
-48 -53 0
-48 -54 0
-48 -55 0
-49 -50 0
-49 -51 0
-49 -52 0
-49 -53 0
-49 -54 0
-49 -55 0
-50 -51 0
-50 -52 0
-50 -53 0
-50 -54 0
-50 -55 0
-51 -52 0
-51 -53 0
-51 -54 0
-51 -55 0
-52 -53 0
-52 -54 0
-52 -55 0
-53 -54 0
-53 -55 0
-54 -55 0
6 12 30 45 46 47 48 49 50 51 52 53 54 55 0
-13 -21 0
-13 -39 0
-13 -45 0
-13 -56 0
-13 -57 0
-13 -58 0
-13 -59 0
-21 -39 0
-21 -45 0
-21 -56 0
-21 -57 0
-21 -58 0
-21 -59 0
-39 -45 0
-39 -56 0
-39 -57 0
-39 -58 0
-39 -59 0
-45 -56 0
-45 -57 0
-45 -58 0
-45 -59 0
-56 -57 0
-56 -58 0
-56 -59 0
-57 -58 0
-57 -59 0
-58 -59 0
13 21 39 45 56 57 58 59 0
-3 -22 0
-3 -40 0
-3 -46 0
-3 -60 0
-3 -61 0
-3 -62 0
-3 -63 0
-3 -64 0
-3 -65 0
-3 -66 0
-3 -67 0
-3 -68 0
-22 -40 0
-22 -46 0
-22 -60 0
-22 -61 0
-22 -62 0
-22 -63 0
-22 -64 0
-22 -65 0
-22 -66 0
-22 -67 0
-22 -68 0
-40 -46 0
-40 -60 0
-40 -61 0
-40 -62 0
-40 -63 0
-40 -64 0
-40 -65 0
-40 -66 0
-40 -67 0
-40 -68 0
-46 -60 0
-46 -61 0
-46 -62 0
-46 -63 0
-46 -64 0
-46 -65 0
-46 -66 0
-46 -67 0
-46 -68 0
-60 -61 0
-60 -62 0
-60 -63 0
-60 -64 0
-60 -65 0
-60 -66 0
-60 -67 0
-60 -68 0
-61 -62 0
-61 -63 0
-61 -64 0
-61 -65 0
-61 -66 0
-61 -67 0
-61 -68 0
-62 -63 0
-62 -64 0
-62 -65 0
-62 -66 0
-62 -67 0
-62 -68 0
-63 -64 0
-63 -65 0
-63 -66 0
-63 -67 0
-63 -68 0
-64 -65 0
-64 -66 0
-64 -67 0
-64 -68 0
-65 -66 0
-65 -67 0
-65 -68 0
-66 -67 0
-66 -68 0
-67 -68 0
3 22 40 46 60 61 62 63 64 65 66 67 68 0
-23 -41 0
-23 -69 0
-23 -70 0
-23 -71 0
-23 -72 0
-23 -73 0
-23 -74 0
-23 -75 0
-41 -69 0
-41 -70 0
-41 -71 0
-41 -72 0
-41 -73 0
-41 -74 0
-41 -75 0
-69 -70 0
-69 -71 0
-69 -72 0
-69 -73 0
-69 -74 0
-69 -75 0
-70 -71 0
-70 -72 0
-70 -73 0
-70 -74 0
-70 -75 0
-71 -72 0
-71 -73 0
-71 -74 0
-71 -75 0
-72 -73 0
-72 -74 0
-72 -75 0
-73 -74 0
-73 -75 0
-74 -75 0
23 41 69 70 71 72 73 74 75 0
-35 -56 0
-35 -76 0
-35 -77 0
-35 -78 0
-35 -79 0
-35 -80 0
-56 -76 0
-56 -77 0
-56 -78 0
-56 -79 0
-56 -80 0
-76 -77 0
-76 -78 0
-76 -79 0
-76 -80 0
-77 -78 0
-77 -79 0
-77 -80 0
-78 -79 0
-78 -80 0
-79 -80 0
35 56 76 77 78 79 80 0
-47 -57 0
-47 -81 0
-47 -82 0
-47 -83 0
-47 -84 0
-47 -85 0
-47 -86 0
-57 -81 0
-57 -82 0
-57 -83 0
-57 -84 0
-57 -85 0
-57 -86 0
-81 -82 0
-81 -83 0
-81 -84 0
-81 -85 0
-81 -86 0
-82 -83 0
-82 -84 0
-82 -85 0
-82 -86 0
-83 -84 0
-83 -85 0
-83 -86 0
-84 -85 0
-84 -86 0
-85 -86 0
47 57 81 82 83 84 85 86 0
-69 -81 0
-69 -87 0
-69 -88 0
-69 -89 0
-69 -90 0
-69 -91 0
-81 -87 0
-81 -88 0
-81 -89 0
-81 -90 0
-81 -91 0
-87 -88 0
-87 -89 0
-87 -90 0
-87 -91 0
-88 -89 0
-88 -90 0
-88 -91 0
-89 -90 0
-89 -91 0
-90 -91 0
69 81 87 88 89 90 91 0
-48 -60 0
-48 -92 0
-48 -93 0
-48 -94 0
-60 -92 0
-60 -93 0
-60 -94 0
-92 -93 0
-92 -94 0
-93 -94 0
48 60 92 93 94 0
-14 -36 0
-14 -49 0
-14 -61 0
-14 -82 0
-14 -92 0
-14 -95 0
-14 -96 0
-14 -97 0
-14 -98 0
-36 -49 0
-36 -61 0
-36 -82 0
-36 -92 0
-36 -95 0
-36 -96 0
-36 -97 0
-36 -98 0
-49 -61 0
-49 -82 0
-49 -92 0
-49 -95 0
-49 -96 0
-49 -97 0
-49 -98 0
-61 -82 0
-61 -92 0
-61 -95 0
-61 -96 0
-61 -97 0
-61 -98 0
-82 -92 0
-82 -95 0
-82 -96 0
-82 -97 0
-82 -98 0
-92 -95 0
-92 -96 0
-92 -97 0
-92 -98 0
-95 -96 0
-95 -97 0
-95 -98 0
-96 -97 0
-96 -98 0
-97 -98 0
14 36 49 61 82 92 95 96 97 98 0
-15 -24 0
-15 -42 0
-15 -70 0
-15 -76 0
-15 -99 0
-15 -100 0
-24 -42 0
-24 -70 0
-24 -76 0
-24 -99 0
-24 -100 0
-42 -70 0
-42 -76 0
-42 -99 0
-42 -100 0
-70 -76 0
-70 -99 0
-70 -100 0
-76 -99 0
-76 -100 0
-99 -100 0
15 24 42 70 76 99 100 0
-16 -25 0
-16 -31 0
-16 -50 0
-16 -71 0
-16 -77 0
-16 -95 0
-16 -101 0
-16 -102 0
-16 -103 0
-16 -104 0
-16 -105 0
-25 -31 0
-25 -50 0
-25 -71 0
-25 -77 0
-25 -95 0
-25 -101 0
-25 -102 0
-25 -103 0
-25 -104 0
-25 -105 0
-31 -50 0
-31 -71 0
-31 -77 0
-31 -95 0
-31 -101 0
-31 -102 0
-31 -103 0
-31 -104 0
-31 -105 0
-50 -71 0
-50 -77 0
-50 -95 0
-50 -101 0
-50 -102 0
-50 -103 0
-50 -104 0
-50 -105 0
-71 -77 0
-71 -95 0
-71 -101 0
-71 -102 0
-71 -103 0
-71 -104 0
-71 -105 0
-77 -95 0
-77 -101 0
-77 -102 0
-77 -103 0
-77 -104 0
-77 -105 0
-95 -101 0
-95 -102 0
-95 -103 0
-95 -104 0
-95 -105 0
-101 -102 0
-101 -103 0
-101 -104 0
-101 -105 0
-102 -103 0
-102 -104 0
-102 -105 0
-103 -104 0
-103 -105 0
-104 -105 0
16 25 31 50 71 77 95 101 102 103 104 105 0
-51 -62 0
-51 -72 0
-51 -99 0
-51 -101 0
-51 -106 0
-62 -72 0
-62 -99 0
-62 -101 0
-62 -106 0
-72 -99 0
-72 -101 0
-72 -106 0
-99 -101 0
-99 -106 0
-101 -106 0
51 62 72 99 101 106 0
-52 -58 0
-52 -63 0
-52 -102 0
-52 -107 0
-52 -108 0
-52 -109 0
-58 -63 0
-58 -102 0
-58 -107 0
-58 -108 0
-58 -109 0
-63 -102 0
-63 -107 0
-63 -108 0
-63 -109 0
-102 -107 0
-102 -108 0
-102 -109 0
-107 -108 0
-107 -109 0
-108 -109 0
52 58 63 102 107 108 109 0
-7 -17 0
-7 -37 0
-7 -78 0
-7 -87 0
-7 -110 0
-7 -111 0
-7 -112 0
-17 -37 0
-17 -78 0
-17 -87 0
-17 -110 0
-17 -111 0
-17 -112 0
-37 -78 0
-37 -87 0
-37 -110 0
-37 -111 0
-37 -112 0
-78 -87 0
-78 -110 0
-78 -111 0
-78 -112 0
-87 -110 0
-87 -111 0
-87 -112 0
-110 -111 0
-110 -112 0
-111 -112 0
7 17 37 78 87 110 111 112 0
-18 -73 0
-18 -93 0
-18 -110 0
-18 -113 0
-18 -114 0
-18 -115 0
-73 -93 0
-73 -110 0
-73 -113 0
-73 -114 0
-73 -115 0
-93 -110 0
-93 -113 0
-93 -114 0
-93 -115 0
-110 -113 0
-110 -114 0
-110 -115 0
-113 -114 0
-113 -115 0
-114 -115 0
18 73 93 110 113 114 115 0
-4 -8 0
-4 -64 0
-4 -79 0
-4 -96 0
-4 -107 0
-4 -116 0
-4 -117 0
-8 -64 0
-8 -79 0
-8 -96 0
-8 -107 0
-8 -116 0
-8 -117 0
-64 -79 0
-64 -96 0
-64 -107 0
-64 -116 0
-64 -117 0
-79 -96 0
-79 -107 0
-79 -116 0
-79 -117 0
-96 -107 0
-96 -116 0
-96 -117 0
-107 -116 0
-107 -117 0
-116 -117 0
4 8 64 79 96 107 116 117 0
-9 -26 0
-9 -94 0
-9 -113 0
-9 -118 0
-9 -119 0
-26 -94 0
-26 -113 0
-26 -118 0
-26 -119 0
-94 -113 0
-94 -118 0
-94 -119 0
-113 -118 0
-113 -119 0
-118 -119 0
9 26 94 113 118 119 0
-5 -43 0
-5 -53 0
-5 -65 0
-5 -83 0
-5 -88 0
-5 -114 0
-5 -120 0
-43 -53 0
-43 -65 0
-43 -83 0
-43 -88 0
-43 -114 0
-43 -120 0
-53 -65 0
-53 -83 0
-53 -88 0
-53 -114 0
-53 -120 0
-65 -83 0
-65 -88 0
-65 -114 0
-65 -120 0
-83 -88 0
-83 -114 0
-83 -120 0
-88 -114 0
-88 -120 0
-114 -120 0
5 43 53 65 83 88 114 120 0
-27 -32 0
-27 -38 0
-27 -54 0
-27 -74 0
-27 -80 0
-27 -89 0
-27 -100 0
-27 -103 0
-27 -108 0
-27 -111 0
-27 -116 0
-27 -120 0
-32 -38 0
-32 -54 0
-32 -74 0
-32 -80 0
-32 -89 0
-32 -100 0
-32 -103 0
-32 -108 0
-32 -111 0
-32 -116 0
-32 -120 0
-38 -54 0
-38 -74 0
-38 -80 0
-38 -89 0
-38 -100 0
-38 -103 0
-38 -108 0
-38 -111 0
-38 -116 0
-38 -120 0
-54 -74 0
-54 -80 0
-54 -89 0
-54 -100 0
-54 -103 0
-54 -108 0
-54 -111 0
-54 -116 0
-54 -120 0
-74 -80 0
-74 -89 0
-74 -100 0
-74 -103 0
-74 -108 0
-74 -111 0
-74 -116 0
-74 -120 0
-80 -89 0
-80 -100 0
-80 -103 0
-80 -108 0
-80 -111 0
-80 -116 0
-80 -120 0
-89 -100 0
-89 -103 0
-89 -108 0
-89 -111 0
-89 -116 0
-89 -120 0
-100 -103 0
-100 -108 0
-100 -111 0
-100 -116 0
-100 -120 0
-103 -108 0
-103 -111 0
-103 -116 0
-103 -120 0
-108 -111 0
-108 -116 0
-108 -120 0
-111 -116 0
-111 -120 0
-116 -120 0
27 32 38 54 74 80 89 100 103 108 111 116 120 0
-33 -44 0
-33 -55 0
-33 -59 0
-33 -66 0
-33 -75 0
-33 -84 0
-33 -90 0
-33 -97 0
-33 -106 0
-33 -109 0
-33 -118 0
-44 -55 0
-44 -59 0
-44 -66 0
-44 -75 0
-44 -84 0
-44 -90 0
-44 -97 0
-44 -106 0
-44 -109 0
-44 -118 0
-55 -59 0
-55 -66 0
-55 -75 0
-55 -84 0
-55 -90 0
-55 -97 0
-55 -106 0
-55 -109 0
-55 -118 0
-59 -66 0
-59 -75 0
-59 -84 0
-59 -90 0
-59 -97 0
-59 -106 0
-59 -109 0
-59 -118 0
-66 -75 0
-66 -84 0
-66 -90 0
-66 -97 0
-66 -106 0
-66 -109 0
-66 -118 0
-75 -84 0
-75 -90 0
-75 -97 0
-75 -106 0
-75 -109 0
-75 -118 0
-84 -90 0
-84 -97 0
-84 -106 0
-84 -109 0
-84 -118 0
-90 -97 0
-90 -106 0
-90 -109 0
-90 -118 0
-97 -106 0
-97 -109 0
-97 -118 0
-106 -109 0
-106 -118 0
-109 -118 0
33 44 55 59 66 75 84 90 97 106 109 118 0
-85 -91 0
-85 -104 0
-85 -112 0
-91 -104 0
-91 -112 0
-104 -112 0
85 91 104 112 0
-10 -67 0
-10 -98 0
-10 -105 0
-10 -117 0
-67 -98 0
-67 -105 0
-67 -117 0
-98 -105 0
-98 -117 0
-105 -117 0
10 67 98 105 117 0
-11 -19 0
-11 -68 0
-11 -86 0
-11 -115 0
-11 -119 0
-19 -68 0
-19 -86 0
-19 -115 0
-19 -119 0
-68 -86 0
-68 -115 0
-68 -119 0
-86 -115 0
-86 -119 0
-115 -119 0
11 19 68 86 115 119 0